100
1000
250
0 0
-10 -38
-10 -38
-10 -38
-10 -38
-10 -38
-10 -38
-10 -38
-10 -38
-10 -38
-10 -38
-10 -38
-10 -38
-10 -38
-10 -38
-10 -38
-10 -38
-10 -38
-10 -38
-10 -38
-10 -38
-10 -38
-10 -38
-10 -38
-10 -38
-10 -38
40 35
40 35
40 35
40 35
40 35
40 35
40 35
40 35
40 35
40 35
40 35
40 35
40 35
40 35
40 35
40 35
40 35
40 35
40 35
40 35
40 35
40 35
40 35
40 35
40 35
-40 -13
-40 -13
-40 -13
-40 -13
-40 -13
-40 -13
-40 -13
-40 -13
-40 -13
-40 -13
-40 -13
-40 -13
-40 -13
-40 -13
-40 -13
-40 -13
-40 -13
-40 -13
-40 -13
-40 -13
-40 -13
-40 -13
-40 -13
-40 -13
-40 -13
-29 20
-29 20
-29 20
-29 20
-29 20
-29 20
-29 20
-29 20
-29 20
-29 20
-29 20
-29 20
-29 20
-29 20
-29 20
-29 20
-29 20
-29 20
-29 20
-29 20
-29 20
-29 20
-29 20
-29 20
-29 20
-13 -10
-13 -10
-13 -10
-13 -10
-13 -10
-13 -10
-13 -10
-13 -10
-13 -10
-13 -10
-13 -10
-13 -10
-13 -10
-13 -10
-13 -10
-13 -10
-13 -10
-13 -10
-13 -10
-13 -10
-13 -10
-13 -10
-13 -10
-13 -10
-13 -10
18 -29
-30 36
-13 -7
30 -2
-36 18
-21 30
40 -9
8 10
11 -38
-17 -6
-5 40
-21 35
14 -10
14 13
-5 37
-13 18
27 -35
-33 8
-3 36
1 -35
-27 -38
-22 -6
-2 16
12 -16
40 -13
18 -29
-30 36
-13 -7
30 -2
-36 18
-21 30
40 -9
8 10
11 -38
-17 -6
-5 40
-21 35
14 -10
14 13
-5 37
-13 18
27 -35
-33 8
-3 36
1 -35
-27 -38
-22 -6
-2 16
12 -16
40 -13
18 -29
-30 36
-13 -7
30 -2
-36 18
-21 30
40 -9
8 10
11 -38
-17 -6
-5 40
-21 35
14 -10
14 13
-5 37
-13 18
27 -35
-33 8
-3 36
1 -35
-27 -38
-22 -6
-2 16
12 -16
40 -13
18 -29
-30 36
-13 -7
30 -2
-36 18
-21 30
40 -9
8 10
11 -38
-17 -6
-5 40
-21 35
14 -10
14 13
-5 37
-13 18
27 -35
-33 8
-3 36
1 -35
-27 -38
-22 -6
-2 16
12 -16
40 -13
18 -29
-30 36
-13 -7
30 -2
-36 18
-21 30
40 -9
8 10
11 -38
-17 -6
-5 40
-21 35
14 -10
14 13
-5 37
-13 18
27 -35
-33 8
-3 36
1 -35
-27 -38
-22 -6
-2 16
12 -16
40 -13
0 0 
56
56
56
53
54
51
52
55
51
53
53
57
60
55
60
53
59
57
56
51
60
56
51
60
56
55
59
54
53
56
54
51
57
56
53
57
54
52
59
56
51
56
60
54
52
53
57
56
60
56
53
54
51
53
57
57
53
51
55
56
56
57
51
60
56
52
56
51
51
53
59
59
56
55
53
56
52
56
53
56
56
56
52
56
54
55
52
55
55
52
56
56
54
52
53
59
55
59
54
55
57
53
52
53
57
56
57
52
59
57
57
59
57
51
52
60
52
53
56
57
56
52
55
60
56
56
56
56
53
54
51
52
55
51
53
53
57
60
55
60
53
59
57
56
51
60
56
51
60
56
55
59
54
53
56
54
51
57
56
53
57
54
52
59
56
51
56
60
54
52
53
57
56
60
56
53
54
51
53
57
57
53
51
55
56
56
57
51
60
56
52
56
51
51
53
59
59
56
55
53
56
52
56
53
56
56
56
52
56
54
55
52
55
55
52
56
56
54
52
53
59
55
59
54
55
57
53
52
53
57
56
57
52
59
57
57
59
57
51
52
60
52
53
56
57
56
52
55
60
56
